(set-logic HORN)

(declare-fun state ((Array Int Int) (Array Int Int) (Array Int Int) (Array Int Int) (Array Int Int) (Array Int Int) (Array Int Int) Int Int (Array Int Int) Int (Array Int Int) Bool Bool Bool Bool) Bool)


(assert (forall ((|!{a1.1}| (Array Int Int)) (|!{a2.2}| (Array Int Int)) (|!{a3.3}| (Array Int Int)) (|!{a4.4}| (Array Int Int)) (|!{a5.5}| (Array Int Int)) (|!{a6.6}| (Array Int Int)) (|!{a7.7}| (Array Int Int)) (|!{N}| Int) (|!{i}| Int) (|!{a8.8}| (Array Int Int)) (|!{x}| Int) (|!{a9.9}| (Array Int Int)) (|!pc[0]| Bool) (|!pc[1]| Bool) (|!pc[2]| Bool) (|!pc[3]| Bool))
  (=>
   (let ((.def_71 (not |!pc[3]|)))
(let ((.def_69 (not |!pc[2]|)))
(let ((.def_67 (not |!pc[1]|)))
(let ((.def_66 (not |!pc[0]|)))
(let ((.def_68 (and .def_66 .def_67)))
(let ((.def_70 (and .def_68 .def_69)))
(let ((.def_72 (and .def_70 .def_71)))
.def_72)))))))
   (state |!{a1.1}| |!{a2.2}| |!{a3.3}| |!{a4.4}| |!{a5.5}| |!{a6.6}| |!{a7.7}| |!{N}| |!{i}| |!{a8.8}| |!{x}| |!{a9.9}| |!pc[0]| |!pc[1]| |!pc[2]| |!pc[3]|))))

(assert (forall ((|!{a1.1}| (Array Int Int)) (|!{a2.2}| (Array Int Int)) (|!{a3.3}| (Array Int Int)) (|!{a4.4}| (Array Int Int)) (|!{a5.5}| (Array Int Int)) (|!{a6.6}| (Array Int Int)) (|!{a7.7}| (Array Int Int)) (|!{N}| Int) (|!{i}| Int) (|!{a8.8}| (Array Int Int)) (|!{x}| Int) (|!{a9.9}| (Array Int Int)) (|!pc[0]| Bool) (|!pc[1]| Bool) (|!pc[2]| Bool) (|!pc[3]| Bool)
                 (|!{a1.1}.next| (Array Int Int)) (|!{a2.2}.next| (Array Int Int)) (|!{a3.3}.next| (Array Int Int)) (|!{a4.4}.next| (Array Int Int)) (|!{a5.5}.next| (Array Int Int)) (|!{a6.6}.next| (Array Int Int)) (|!{a7.7}.next| (Array Int Int)) (|!{N}.next| Int) (|!{i}.next| Int) (|!{a8.8}.next| (Array Int Int)) (|!{x}.next| Int) (|!{a9.9}.next| (Array Int Int)) (|!pc[0].next| Bool) (|!pc[1].next| Bool) (|!pc[2].next| Bool) (|!pc[3].next| Bool)
                 (|%{x}#1| Int) (|%{a1.1}#1| (Array Int Int)) (|%{a2.2}#1| (Array Int Int)) (|%{a3.3}#1| (Array Int Int)) (|%{a4.4}#1| (Array Int Int)) (|%{a5.5}#1| (Array Int Int)) (|%{a6.6}#1| (Array Int Int)) (|%{a7.7}#1| (Array Int Int)) (|%{a8.8}#1| (Array Int Int)) (|%{a9.9}#1| (Array Int Int)) (nd<0> Int) (nd_char<0> Int))
  (=>
   (and (state |!{a1.1}| |!{a2.2}| |!{a3.3}| |!{a4.4}| |!{a5.5}| |!{a6.6}| |!{a7.7}| |!{N}| |!{i}| |!{a8.8}| |!{x}| |!{a9.9}| |!pc[0]| |!pc[1]| |!pc[2]| |!pc[3]|)
(let ((.def_67 (not |!pc[1]|)))
(let ((.def_231 (and |!pc[0]| .def_67)))
(let ((.def_69 (not |!pc[2]|)))
(let ((.def_315 (and .def_69 .def_231)))
(let ((.def_71 (not |!pc[3]|)))
(let ((.def_400 (and .def_71 .def_315)))
(let ((.def_189 (and |!pc[0].next| |!pc[1].next|)))
(let ((.def_116 (not |!pc[2].next|)))
(let ((.def_190 (and .def_116 .def_189)))
(let ((.def_360 (and |!pc[3].next| .def_190)))
(let ((.def_403 (and .def_360 .def_400)))
(let ((.def_134 (= |!{a2.2}| |!{a2.2}.next|)))
(let ((.def_132 (= |!{a1.1}| |!{a1.1}.next|)))
(let ((.def_157 (and .def_132 .def_134)))
(let ((.def_136 (= |!{a3.3}| |!{a3.3}.next|)))
(let ((.def_158 (and .def_136 .def_157)))
(let ((.def_138 (= |!{a4.4}| |!{a4.4}.next|)))
(let ((.def_159 (and .def_138 .def_158)))
(let ((.def_140 (= |!{a5.5}| |!{a5.5}.next|)))
(let ((.def_160 (and .def_140 .def_159)))
(let ((.def_142 (= |!{a6.6}| |!{a6.6}.next|)))
(let ((.def_161 (and .def_142 .def_160)))
(let ((.def_144 (= |!{N}| |!{N}.next|)))
(let ((.def_162 (and .def_144 .def_161)))
(let ((.def_146 (= |!{a7.7}| |!{a7.7}.next|)))
(let ((.def_163 (and .def_146 .def_162)))
(let ((.def_148 (= |!{a8.8}| |!{a8.8}.next|)))
(let ((.def_164 (and .def_148 .def_163)))
(let ((.def_107 (= |!{i}.next| 0)))
(let ((.def_250 (and .def_107 .def_164)))
(let ((.def_152 (= |!{a9.9}| |!{a9.9}.next|)))
(let ((.def_251 (and .def_152 .def_250)))
(let ((.def_154 (= |!{x}| |!{x}.next|)))
(let ((.def_252 (and .def_154 .def_251)))
(let ((.def_214 (<= |!{N}| |!{i}|)))
(let ((.def_253 (and .def_214 .def_252)))
(let ((.def_404 (and .def_253 .def_403)))
(let ((.def_118 (not |!pc[3].next|)))
(let ((.def_114 (not |!pc[1].next|)))
(let ((.def_115 (and |!pc[0].next| .def_114)))
(let ((.def_117 (and .def_115 .def_116)))
(let ((.def_119 (and .def_117 .def_118)))
(let ((.def_401 (and .def_119 .def_400)))
(let ((.def_386 (store |!{a2.2}| |!{i}| nd_char<0>)))
(let ((.def_387 (= |!{a2.2}.next| .def_386)))
(let ((.def_369 (store |!{a1.1}| |!{i}| nd_char<0>)))
(let ((.def_372 (= |!{a1.1}.next| .def_369)))
(let ((.def_388 (and .def_372 .def_387)))
(let ((.def_389 (and .def_136 .def_388)))
(let ((.def_390 (and .def_138 .def_389)))
(let ((.def_391 (and .def_140 .def_390)))
(let ((.def_392 (and .def_142 .def_391)))
(let ((.def_393 (and .def_144 .def_392)))
(let ((.def_394 (and .def_146 .def_393)))
(let ((.def_395 (and .def_148 .def_394)))
(let ((.def_220 (* (- 1) |!{i}.next|)))
(let ((.def_221 (+ |!{i}| .def_220)))
(let ((.def_222 (= .def_221 (- 1))))
(let ((.def_396 (and .def_222 .def_395)))
(let ((.def_397 (and .def_152 .def_396)))
(let ((.def_398 (and .def_154 .def_397)))
(let ((.def_215 (not .def_214)))
(let ((.def_399 (and .def_215 .def_398)))
(let ((.def_402 (and .def_399 .def_401)))
(let ((.def_405 (or .def_402 .def_404)))
(let ((.def_208 (and |!pc[0]| |!pc[1]|)))
(let ((.def_209 (and .def_69 .def_208)))
(let ((.def_359 (and |!pc[3]| .def_209)))
(let ((.def_194 (not |!pc[0].next|)))
(let ((.def_195 (and |!pc[1].next| .def_194)))
(let ((.def_196 (and .def_116 .def_195)))
(let ((.def_338 (and |!pc[3].next| .def_196)))
(let ((.def_363 (and .def_338 .def_359)))
(let ((.def_364 (and .def_253 .def_363)))
(let ((.def_361 (and .def_359 .def_360)))
(let ((.def_345 (select |!{a2.2}| |!{i}|)))
(let ((.def_346 (store |!{a3.3}| |!{i}| .def_345)))
(let ((.def_347 (= |!{a3.3}.next| .def_346)))
(let ((.def_348 (and .def_157 .def_347)))
(let ((.def_349 (and .def_138 .def_348)))
(let ((.def_350 (and .def_140 .def_349)))
(let ((.def_351 (and .def_142 .def_350)))
(let ((.def_352 (and .def_144 .def_351)))
(let ((.def_353 (and .def_146 .def_352)))
(let ((.def_354 (and .def_148 .def_353)))
(let ((.def_355 (and .def_222 .def_354)))
(let ((.def_356 (and .def_152 .def_355)))
(let ((.def_357 (and .def_154 .def_356)))
(let ((.def_358 (and .def_215 .def_357)))
(let ((.def_362 (and .def_358 .def_361)))
(let ((.def_365 (or .def_362 .def_364)))
(let ((.def_66 (not |!pc[0]|)))
(let ((.def_186 (and |!pc[1]| .def_66)))
(let ((.def_187 (and .def_69 .def_186)))
(let ((.def_337 (and |!pc[3]| .def_187)))
(let ((.def_317 (and |!pc[3].next| .def_117)))
(let ((.def_341 (and .def_317 .def_337)))
(let ((.def_342 (and .def_253 .def_341)))
(let ((.def_339 (and .def_337 .def_338)))
(let ((.def_324 (select |!{a3.3}| |!{i}|)))
(let ((.def_325 (store |!{a4.4}| |!{i}| .def_324)))
(let ((.def_326 (= |!{a4.4}.next| .def_325)))
(let ((.def_327 (and .def_158 .def_326)))
(let ((.def_328 (and .def_140 .def_327)))
(let ((.def_329 (and .def_142 .def_328)))
(let ((.def_330 (and .def_144 .def_329)))
(let ((.def_331 (and .def_146 .def_330)))
(let ((.def_332 (and .def_148 .def_331)))
(let ((.def_333 (and .def_222 .def_332)))
(let ((.def_334 (and .def_152 .def_333)))
(let ((.def_335 (and .def_154 .def_334)))
(let ((.def_336 (and .def_215 .def_335)))
(let ((.def_340 (and .def_336 .def_339)))
(let ((.def_343 (or .def_340 .def_342)))
(let ((.def_316 (and |!pc[3]| .def_315)))
(let ((.def_201 (and .def_114 .def_194)))
(let ((.def_295 (and .def_116 .def_201)))
(let ((.def_296 (and |!pc[3].next| .def_295)))
(let ((.def_320 (and .def_296 .def_316)))
(let ((.def_321 (and .def_253 .def_320)))
(let ((.def_318 (and .def_316 .def_317)))
(let ((.def_303 (select |!{a4.4}| |!{i}|)))
(let ((.def_304 (store |!{a5.5}| |!{i}| .def_303)))
(let ((.def_305 (= |!{a5.5}.next| .def_304)))
(let ((.def_306 (and .def_159 .def_305)))
(let ((.def_307 (and .def_142 .def_306)))
(let ((.def_308 (and .def_144 .def_307)))
(let ((.def_309 (and .def_146 .def_308)))
(let ((.def_310 (and .def_148 .def_309)))
(let ((.def_311 (and .def_222 .def_310)))
(let ((.def_312 (and .def_152 .def_311)))
(let ((.def_313 (and .def_154 .def_312)))
(let ((.def_314 (and .def_215 .def_313)))
(let ((.def_319 (and .def_314 .def_318)))
(let ((.def_322 (or .def_319 .def_321)))
(let ((.def_68 (and .def_66 .def_67)))
(let ((.def_70 (and .def_68 .def_69)))
(let ((.def_294 (and |!pc[3]| .def_70)))
(let ((.def_275 (and |!pc[2].next| .def_189)))
(let ((.def_276 (and .def_118 .def_275)))
(let ((.def_299 (and .def_276 .def_294)))
(let ((.def_300 (and .def_253 .def_299)))
(let ((.def_297 (and .def_294 .def_296)))
(let ((.def_283 (select |!{a5.5}| |!{i}|)))
(let ((.def_284 (store |!{a6.6}| |!{i}| .def_283)))
(let ((.def_285 (= |!{a6.6}.next| .def_284)))
(let ((.def_286 (and .def_160 .def_285)))
(let ((.def_287 (and .def_144 .def_286)))
(let ((.def_288 (and .def_146 .def_287)))
(let ((.def_289 (and .def_148 .def_288)))
(let ((.def_290 (and .def_222 .def_289)))
(let ((.def_291 (and .def_152 .def_290)))
(let ((.def_292 (and .def_154 .def_291)))
(let ((.def_293 (and .def_215 .def_292)))
(let ((.def_298 (and .def_293 .def_297)))
(let ((.def_301 (or .def_298 .def_300)))
(let ((.def_273 (and |!pc[2]| .def_208)))
(let ((.def_274 (and .def_71 .def_273)))
(let ((.def_256 (and |!pc[2].next| .def_195)))
(let ((.def_257 (and .def_118 .def_256)))
(let ((.def_279 (and .def_257 .def_274)))
(let ((.def_280 (and .def_253 .def_279)))
(let ((.def_277 (and .def_274 .def_276)))
(let ((.def_264 (select |!{a6.6}| |!{i}|)))
(let ((.def_265 (store |!{a7.7}| |!{i}| .def_264)))
(let ((.def_266 (= |!{a7.7}.next| .def_265)))
(let ((.def_267 (and .def_162 .def_266)))
(let ((.def_268 (and .def_148 .def_267)))
(let ((.def_269 (and .def_222 .def_268)))
(let ((.def_270 (and .def_152 .def_269)))
(let ((.def_271 (and .def_154 .def_270)))
(let ((.def_272 (and .def_215 .def_271)))
(let ((.def_278 (and .def_272 .def_277)))
(let ((.def_281 (or .def_278 .def_280)))
(let ((.def_254 (and |!pc[2]| .def_186)))
(let ((.def_255 (and .def_71 .def_254)))
(let ((.def_234 (and |!pc[2].next| .def_115)))
(let ((.def_235 (and .def_118 .def_234)))
(let ((.def_260 (and .def_235 .def_255)))
(let ((.def_261 (and .def_253 .def_260)))
(let ((.def_258 (and .def_255 .def_257)))
(let ((.def_242 (select |!{a7.7}| |!{i}|)))
(let ((.def_243 (store |!{a8.8}| |!{i}| .def_242)))
(let ((.def_244 (= |!{a8.8}.next| .def_243)))
(let ((.def_245 (and .def_163 .def_244)))
(let ((.def_246 (and .def_222 .def_245)))
(let ((.def_247 (and .def_152 .def_246)))
(let ((.def_248 (and .def_154 .def_247)))
(let ((.def_249 (and .def_215 .def_248)))
(let ((.def_259 (and .def_249 .def_258)))
(let ((.def_262 (or .def_259 .def_261)))
(let ((.def_232 (and |!pc[2]| .def_231)))
(let ((.def_233 (and .def_71 .def_232)))
(let ((.def_197 (and .def_118 .def_196)))
(let ((.def_238 (and .def_197 .def_233)))
(let ((.def_228 (= |!{x}.next| 0)))
(let ((.def_150 (= |!{i}| |!{i}.next|)))
(let ((.def_165 (and .def_150 .def_164)))
(let ((.def_166 (and .def_152 .def_165)))
(let ((.def_229 (and .def_166 .def_228)))
(let ((.def_230 (and .def_214 .def_229)))
(let ((.def_239 (and .def_230 .def_238)))
(let ((.def_236 (and .def_233 .def_235)))
(let ((.def_217 (select |!{a8.8}| |!{i}|)))
(let ((.def_218 (store |!{a9.9}| |!{i}| .def_217)))
(let ((.def_224 (= |!{a9.9}.next| .def_218)))
(let ((.def_223 (and .def_164 .def_222)))
(let ((.def_225 (and .def_223 .def_224)))
(let ((.def_226 (and .def_154 .def_225)))
(let ((.def_227 (and .def_215 .def_226)))
(let ((.def_237 (and .def_227 .def_236)))
(let ((.def_240 (or .def_237 .def_239)))
(let ((.def_210 (and .def_71 .def_209)))
(let ((.def_211 (and .def_197 .def_210)))
(let ((.def_168 (* (- 1) |!{x}.next|)))
(let ((.def_169 (+ |!{x}| .def_168)))
(let ((.def_170 (= .def_169 (- 1))))
(let ((.def_171 (and .def_166 .def_170)))
(let ((.def_212 (and .def_171 .def_211)))
(let ((.def_202 (and |!pc[2].next| .def_201)))
(let ((.def_203 (and .def_118 .def_202)))
(let ((.def_188 (and .def_71 .def_187)))
(let ((.def_204 (and .def_188 .def_203)))
(let ((.def_122 (<= |!{N}| |!{x}|)))
(let ((.def_174 (and .def_122 .def_132)))
(let ((.def_175 (and .def_134 .def_174)))
(let ((.def_176 (and .def_136 .def_175)))
(let ((.def_177 (and .def_138 .def_176)))
(let ((.def_178 (and .def_140 .def_177)))
(let ((.def_179 (and .def_142 .def_178)))
(let ((.def_180 (and .def_144 .def_179)))
(let ((.def_181 (and .def_146 .def_180)))
(let ((.def_182 (and .def_148 .def_181)))
(let ((.def_183 (and .def_150 .def_182)))
(let ((.def_184 (and .def_152 .def_183)))
(let ((.def_185 (and .def_154 .def_184)))
(let ((.def_205 (and .def_185 .def_204)))
(let ((.def_198 (and .def_188 .def_197)))
(let ((.def_125 (select |!{a9.9}| |!{x}|)))
(let ((.def_124 (select |!{a1.1}| |!{x}|)))
(let ((.def_126 (= .def_124 .def_125)))
(let ((.def_172 (and .def_126 .def_171)))
(let ((.def_123 (not .def_122)))
(let ((.def_173 (and .def_123 .def_172)))
(let ((.def_199 (and .def_173 .def_198)))
(let ((.def_191 (and .def_118 .def_190)))
(let ((.def_192 (and .def_188 .def_191)))
(let ((.def_127 (not .def_126)))
(let ((.def_133 (and .def_127 .def_132)))
(let ((.def_135 (and .def_133 .def_134)))
(let ((.def_137 (and .def_135 .def_136)))
(let ((.def_139 (and .def_137 .def_138)))
(let ((.def_141 (and .def_139 .def_140)))
(let ((.def_143 (and .def_141 .def_142)))
(let ((.def_145 (and .def_143 .def_144)))
(let ((.def_147 (and .def_145 .def_146)))
(let ((.def_149 (and .def_147 .def_148)))
(let ((.def_151 (and .def_149 .def_150)))
(let ((.def_153 (and .def_151 .def_152)))
(let ((.def_155 (and .def_153 .def_154)))
(let ((.def_156 (and .def_123 .def_155)))
(let ((.def_193 (and .def_156 .def_192)))
(let ((.def_200 (or .def_193 .def_199)))
(let ((.def_206 (or .def_200 .def_205)))
(let ((.def_72 (and .def_70 .def_71)))
(let ((.def_120 (and .def_72 .def_119)))
(let ((.def_111 (= |!{x}.next| |%{x}#1|)))
(let ((.def_109 (= |!{a9.9}.next| |%{a9.9}#1|)))
(let ((.def_105 (= |!{a8.8}.next| |%{a8.8}#1|)))
(let ((.def_103 (= |!{a7.7}.next| |%{a7.7}#1|)))
(let ((.def_101 (= |!{N}.next| nd<0>)))
(let ((.def_99 (= |!{a6.6}.next| |%{a6.6}#1|)))
(let ((.def_97 (= |!{a5.5}.next| |%{a5.5}#1|)))
(let ((.def_95 (= |!{a4.4}.next| |%{a4.4}#1|)))
(let ((.def_93 (= |!{a3.3}.next| |%{a3.3}#1|)))
(let ((.def_91 (= |!{a2.2}.next| |%{a2.2}#1|)))
(let ((.def_90 (= |!{a1.1}.next| |%{a1.1}#1|)))
(let ((.def_92 (and .def_90 .def_91)))
(let ((.def_94 (and .def_92 .def_93)))
(let ((.def_96 (and .def_94 .def_95)))
(let ((.def_98 (and .def_96 .def_97)))
(let ((.def_100 (and .def_98 .def_99)))
(let ((.def_102 (and .def_100 .def_101)))
(let ((.def_104 (and .def_102 .def_103)))
(let ((.def_106 (and .def_104 .def_105)))
(let ((.def_108 (and .def_106 .def_107)))
(let ((.def_110 (and .def_108 .def_109)))
(let ((.def_112 (and .def_110 .def_111)))
(let ((.def_88 (<= nd<0> 0)))
(let ((.def_89 (not .def_88)))
(let ((.def_113 (and .def_89 .def_112)))
(let ((.def_121 (and .def_113 .def_120)))
(let ((.def_207 (or .def_121 .def_206)))
(let ((.def_213 (or .def_207 .def_212)))
(let ((.def_241 (or .def_213 .def_240)))
(let ((.def_263 (or .def_241 .def_262)))
(let ((.def_282 (or .def_263 .def_281)))
(let ((.def_302 (or .def_282 .def_301)))
(let ((.def_323 (or .def_302 .def_322)))
(let ((.def_344 (or .def_323 .def_343)))
(let ((.def_366 (or .def_344 .def_365)))
(let ((.def_406 (or .def_366 .def_405)))
.def_406))))))))))))))))))))))))))))))))))))))))))))))))))))))))))))))))))))))))))))))))))))))))))))))))))))))))))))))))))))))))))))))))))))))))))))))))))))))))))))))))))))))))))))))))))))))))))))))))))))))))))))))))))))))))))))))))))))))))))))))))))))))))))))))))))))))))))))))))))))))))))))))))))))))))))))))
   ) (state |!{a1.1}.next| |!{a2.2}.next| |!{a3.3}.next| |!{a4.4}.next| |!{a5.5}.next| |!{a6.6}.next| |!{a7.7}.next| |!{N}.next| |!{i}.next| |!{a8.8}.next| |!{x}.next| |!{a9.9}.next| |!pc[0].next| |!pc[1].next| |!pc[2].next| |!pc[3].next|))))

(assert (forall ((|!{a1.1}| (Array Int Int)) (|!{a2.2}| (Array Int Int)) (|!{a3.3}| (Array Int Int)) (|!{a4.4}| (Array Int Int)) (|!{a5.5}| (Array Int Int)) (|!{a6.6}| (Array Int Int)) (|!{a7.7}| (Array Int Int)) (|!{N}| Int) (|!{i}| Int) (|!{a8.8}| (Array Int Int)) (|!{x}| Int) (|!{a9.9}| (Array Int Int)) (|!pc[0]| Bool) (|!pc[1]| Bool) (|!pc[2]| Bool) (|!pc[3]| Bool))
  (=> (state |!{a1.1}| |!{a2.2}| |!{a3.3}| |!{a4.4}| |!{a5.5}| |!{a6.6}| |!{a7.7}| |!{N}| |!{i}| |!{a8.8}| |!{x}| |!{a9.9}| |!pc[0]| |!pc[1]| |!pc[2]| |!pc[3]|)
(let ((.def_208 (and |!pc[0]| |!pc[1]|)))
(let ((.def_69 (not |!pc[2]|)))
(let ((.def_209 (and .def_69 .def_208)))
(let ((.def_71 (not |!pc[3]|)))
(let ((.def_210 (and .def_71 .def_209)))
(let ((.def_407 (not .def_210)))
.def_407))))))
)))

(check-sat)
